VRPTWMS/instances/mip/toDelete/fuel_old/5/N5-C_DV100-C_SV25_F5_12_No_1.log

Gurobi 6.0.2 (win64) logging started 06/12/15 16:44:55

Read LP format model from file C:\MT\repository\VRPTWMS\instances\mip\fuel\N5-C_DV100-C_SV25_F5_12_No_1.lp
Reading time = 0.00 seconds
(null): 186 rows, 103 columns, 698 nonzeros
Optimize a model with 186 rows, 103 columns and 698 nonzeros
Model has 150 quadratic constraints
WARNING: Only barrier available for SOCP models
Coefficient statistics:
  Matrix range    [1e+00, 1e+02]
  Objective range [1e+01, 1e+03]
  Bounds range    [1e+00, 1e+02]
  RHS range       [1e+00, 1e+02]
Modified 3 Q diagonals
Modified 3 Q diagonals
Modified 3 Q diagonals
Modified 3 Q diagonals
Modified 3 Q diagonals
Presolve removed 32 rows and 19 columns
Presolve time: 0.01s
Presolved: 367 rows, 195 columns, 1692 nonzeros
Variable types: 102 continuous, 93 integer (67 binary)
Optimize a model with 367 rows, 195 columns and 1692 nonzeros
Coefficient statistics:
  Matrix range    [1e+00, 2e+02]
  Objective range [1e+01, 1e+03]
  Bounds range    [1e+00, 1e+02]
  RHS range       [1e+00, 1e+02]
Presolve removed 40 rows and 26 columns
Presolved: 327 rows, 171 columns, 1532 nonzeros


Root relaxation: objective 1.166920e+03, 22 iterations, 0.00 seconds

    Nodes    |    Current Node    |     Objective Bounds      |     Work
 Expl Unexpl |  Obj  Depth IntInf | Incumbent    BestBd   Gap | It/Node Time

     0     0 1166.92000    0    4          - 1166.92000      -     -    0s
     0     0 1706.16500    0   15          - 1706.16500      -     -    0s
     0     0 2185.40602    0   10          - 2185.40602      -     -    0s
     0     0 2192.71857    0   17          - 2192.71857      -     -    0s
     0     0 2194.39795    0   18          - 2194.39795      -     -    0s
     0     0 2195.66500    0   15          - 2195.66500      -     -    0s
     0     0 2195.66500    0   18          - 2195.66500      -     -    0s
     0     0 2195.66500    0   19          - 2195.66500      -     -    0s
     0     0 2195.66500    0   19          - 2195.66500      -     -    0s
     0     2 2195.66500    0   19          - 2195.66500      -     -    0s
*   11    11               3    4310.2300000 2201.71139  48.9%  14.4    0s
*   67     2              13    4307.6400000 2204.46705  48.8%  11.6    0s
*   71     2              15    4300.1800000 2204.46705  48.7%  11.1    0s
*  107    11               6    3298.2800000 2204.46705  33.2%  12.4    0s
*  140     0              11    3294.0500000 2204.46705  33.1%  11.8    0s
*  237     0              12    3290.6000000 2422.81667  26.4%  10.9    0s

Cutting planes:
  Cover: 14
  Implied bound: 14
  MIR: 13
  Zero half: 1

Explored 247 nodes (2877 simplex iterations) in 0.10 seconds
Thread count was 2 (of 4 available processors)

Optimal solution found (tolerance 1.00e-04)
Best objective 3.290600000000e+03, best bound 3.290600000000e+03, gap 0.0%
k_c1	4.000000000000028
k_c2	5.999999999999995
k_c3	100.0
k_c4	4.0
k_c5	94.99999999999994
k_dN	-0.0
o_1	-0.0
o_2	1.0
o_3	-0.0
o_4	0.0
o_5	-0.0
p_1	0.0
p_2	1.0
p_3	1.0
p_4	0.0
p_5	0.0
phi_c1	1.9999999999999998
phi_c2	-0.0
phi_c3	1.0
phi_c4	2.0
phi_c5	2.0
phi_dN	-0.0
pi_c1	-0.0
pi_c2	9.00000000000001
pi_c3	4.000000000000011
pi_c4	-0.0
pi_c5	0.0
pi_dN	-0.0
tauD_c1	80.0
tauD_c2	37.0
tauD_c3	12.0
tauD_c4	70.0
tauD_c5	10.0
tauD_d0	-0.0
tauD_dN	100.0
tauS_c1	-0.0
tauS_c2	4.0
tauS_c3	57.0
tauS_c4	0.0
tauS_c5	0.0
tauS_d0	-0.0
tauS_dN	77.0
x_c1_dN	1.0
x_c2_c4	1.0
x_c3_c1	1.0
x_c4_dN	1.0
x_c5_c2	1.0
x_d0_c3	1.0
x_d0_c5	1.0
z_c2_c3	1.0
z_c3_dN	1.0
z_d0_c2	1.0
